\ This file has been generated by DOcplex
\ ENCODING=ISO-8859-1
\Problem name: random_problem.lp

Minimize
 obj: - 196 x0 - 98 x1 + 562 x2 + 281 x3 - 254 x4 - 127 x5 + [ 344 x0^2
      + 344 x0*x1 + 368 x0*x2 + 184 x0*x3 + 224 x0*x4 + 112 x0*x5 + 86 x1^2
      + 184 x1*x2 + 92 x1*x3 + 112 x1*x4 + 56 x1*x5 + 608 x2^2 + 608 x2*x3
      + 320 x2*x4 + 160 x2*x5 + 152 x3^2 + 160 x3*x4 + 80 x3*x5 + 176 x4^2
      + 176 x4*x5 + 44 x5^2 ]/2
Subject To
 c0: 2 x0 + x1 + 2 x2 + x3 + 2 x4 + x5 = 3

Bounds
 0 <= x0 <= 1
 0 <= x1 <= 1
 0 <= x2 <= 1
 0 <= x3 <= 1
 0 <= x4 <= 1
 0 <= x5 <= 1

Binaries
 x0 x1 x2 x3 x4 x5
End
